wr=75;
nProviders=10;

cost_worker=[ 132 141 134 115 74 97 90 127 132 66 ];
available_workers=[ 22 40 30 15 50 32 46 32 36 23 ];
cost_contract=[ 1393 1082 1839 2971 3104 3396 892 1072 3216 1114 ];
country=[ 10 9 6 6 9 9 3 8 9 9 ];
cost_1=5;
cost_2=7;
cost_3=150;
